c Random generated cnf formula, satisfiable: true
p cnf 10 50
-2 -3 -6 0
3 9 -8 0
-9 6 8 0
-8 -10 -2 0
-5 -8 -2 0
-6 -2 -10 0
4 1 -2 0
-1 6 10 0
9 -8 2 0
-7 -4 2 0
5 -10 9 0
-5 -6 10 0
1 8 -10 0
-6 1 4 0
-5 -3 -10 0
10 -6 -2 0
-4 -5 9 0
8 -6 -1 0
4 -7 9 0
3 -10 5 0
8 7 -1 0
6 -3 1 0
-7 2 -4 0
-5 -1 -10 0
-1 4 3 0
-9 7 8 0
-6 9 2 0
-9 1 -6 0
-8 -3 1 0
-9 -4 5 0
-6 -3 10 0
1 -10 -8 0
-7 -10 -2 0
10 9 -8 0
6 -8 4 0
-5 -8 1 0
4 -1 10 0
3 -6 2 0
-6 5 8 0
-6 10 -1 0
3 5 9 0
4 -8 1 0
5 -1 -4 0
-9 2 -7 0
-9 4 -2 0
-9 10 8 0
1 -3 -9 0
-9 4 5 0
-6 10 -5 0
-3 10 7 0
